100
32
2
20
13
1
23
1
11
10
17
12
11
10
1
10
4
1
1
2
1
1
3
1
1
17
2
3
1
1
2
1
3
1
1
2
18
3
18
18
2
2
3
2
1
1
4
1
1
2
3
17
1
7
2
2
1
1
2
1
1
4
6
18
1
21
2
1
1
1
1
3
1
5
18
1
2
6
1
2
1
2
3
2
1
17
1
1
2
1
1
2
3
4
1
2
2
1
1
18
2
2